20	5
0	8	2	3	6	7	4	8	5	1
1	2	17	16
2	1	18
3	2	15	17
4	2	9	17
5	3	9	13	11
6	4	17	14	13	10
7	3	18	13	17
8	4	14	11	20	17
9	2	16	12
10	0
11	3	16	12	19
12	1	21
13	1	21
14	1	21
15	1	21
16	1	21
17	1	21
18	1	21
19	1	21
20	1	21
21	0
0	0	0	0	0	0	0
1	6	5	3	0	2	2
2	6	1	0	0	0	1
3	4	0	0	1	3	5
4	5	2	3	3	0	0
5	4	1	3	1	2	0
6	7	2	0	1	0	4
7	3	1	1	0	4	0
8	5	5	5	5	1	4
9	9	4	4	1	0	3
10	4	0	0	0	5	3
11	9	2	0	3	2	3
12	9	0	0	0	0	4
13	1	4	3	0	5	1
14	3	4	1	5	4	1
15	10	3	3	4	1	2
16	1	3	1	4	1	2
17	4	3	3	1	2	5
18	2	1	3	3	4	1
19	6	3	1	1	4	5
20	10	2	2	0	1	0
21	0	0	0	0	0	0
11	9	8	9	9
